NAME 
ROWS
 N  OBJ
 L  ULC[0]  
 L  ULC[1]  
 L  ULC[2]  
 L  ULC[3]  
 L  ULC[4]  
 L  LLC[0]  
 L  LLC[1]  
 L  LLC[2]  
 L  LLC[3]  
 L  LLC[4]  
COLUMNS
    MARKER    'MARKER'                 'INTORG'
    X[0]      OBJ       -18
    X[0]      ULC[0]    77
    X[0]      ULC[1]    40
    X[0]      ULC[2]    31
    X[0]      ULC[3]    17
    X[0]      ULC[4]    72
    X[0]      LLC[0]    70
    X[0]      LLC[1]    37
    X[0]      LLC[2]    58
    X[0]      LLC[3]    46
    X[0]      LLC[4]    18
    X[1]      OBJ       9
    X[1]      ULC[0]    87
    X[1]      ULC[1]    47
    X[1]      ULC[2]    48
    X[1]      ULC[3]    50
    X[1]      ULC[4]    55
    X[1]      LLC[0]    75
    X[1]      LLC[1]    24
    X[1]      LLC[2]    11
    X[1]      LLC[3]    95
    X[1]      LLC[4]    26
    X[2]      OBJ       6
    X[2]      ULC[0]    83
    X[2]      ULC[1]    17
    X[2]      ULC[2]    17
    X[2]      ULC[3]    50
    X[2]      ULC[4]    9
    X[2]      LLC[0]    12
    X[2]      LLC[1]    24
    X[2]      LLC[2]    41
    X[2]      LLC[3]    90
    X[2]      LLC[4]    44
    X[3]      OBJ       -35
    X[3]      ULC[0]    77
    X[3]      ULC[1]    80
    X[3]      ULC[2]    76
    X[3]      ULC[3]    28
    X[3]      ULC[4]    68
    X[3]      LLC[0]    79
    X[3]      LLC[1]    25
    X[3]      LLC[2]    87
    X[3]      LLC[3]    81
    X[3]      LLC[4]    47
    X[4]      OBJ       -17
    X[4]      ULC[0]    52
    X[4]      ULC[1]    8
    X[4]      ULC[2]    52
    X[4]      ULC[3]    40
    X[4]      ULC[4]    66
    X[4]      LLC[0]    15
    X[4]      LLC[1]    11
    X[4]      LLC[2]    47
    X[4]      LLC[3]    72
    X[4]      LLC[4]    69
    X[5]      OBJ       -12
    X[5]      ULC[0]    13
    X[5]      ULC[1]    78
    X[5]      ULC[2]    27
    X[5]      ULC[3]    5
    X[5]      ULC[4]    45
    X[5]      LLC[0]    40
    X[5]      LLC[1]    42
    X[5]      LLC[2]    9
    X[5]      LLC[3]    64
    X[5]      LLC[4]    62
    X[6]      OBJ       -3
    X[6]      ULC[0]    57
    X[6]      ULC[1]    20
    X[6]      ULC[2]    78
    X[6]      ULC[3]    47
    X[6]      ULC[4]    86
    X[6]      LLC[0]    31
    X[6]      LLC[1]    3
    X[6]      LLC[2]    92
    X[6]      LLC[3]    26
    X[6]      LLC[4]    62
    X[7]      OBJ       29
    X[7]      ULC[0]    50
    X[7]      ULC[1]    100
    X[7]      ULC[2]    88
    X[7]      ULC[3]    32
    X[7]      ULC[4]    46
    X[7]      LLC[0]    75
    X[7]      LLC[1]    85
    X[7]      LLC[2]    93
    X[7]      LLC[3]    71
    X[7]      LLC[4]    11
    X[8]      ULC[0]    5
    X[8]      ULC[1]    70
    X[8]      ULC[2]    21
    X[8]      ULC[3]    94
    X[8]      ULC[4]    11
    X[8]      LLC[0]    15
    X[8]      LLC[1]    1
    X[8]      LLC[2]    45
    X[8]      LLC[3]    16
    X[8]      LLC[4]    27
    X[9]      OBJ       30
    X[9]      ULC[0]    66
    X[9]      ULC[1]    90
    X[9]      ULC[2]    68
    X[9]      ULC[3]    64
    X[9]      ULC[4]    55
    X[9]      LLC[0]    5
    X[9]      LLC[1]    25
    X[9]      LLC[2]    69
    X[9]      LLC[3]    65
    X[9]      LLC[4]    68
    Y[0]      OBJ       31
    Y[0]      ULC[0]    82
    Y[0]      ULC[1]    50
    Y[0]      ULC[2]    6
    Y[0]      ULC[3]    71
    Y[0]      ULC[4]    89
    Y[0]      LLC[0]    83
    Y[0]      LLC[1]    60
    Y[0]      LLC[2]    79
    Y[0]      LLC[3]    3
    Y[0]      LLC[4]    39
    Y[1]      OBJ       -3
    Y[1]      ULC[0]    74
    Y[1]      ULC[1]    77
    Y[1]      ULC[2]    25
    Y[1]      ULC[3]    25
    Y[1]      ULC[4]    88
    Y[1]      LLC[0]    57
    Y[1]      LLC[1]    77
    Y[1]      LLC[2]    72
    Y[1]      LLC[3]    16
    Y[1]      LLC[4]    56
    Y[2]      OBJ       14
    Y[2]      ULC[0]    90
    Y[2]      ULC[1]    23
    Y[2]      ULC[2]    22
    Y[2]      ULC[3]    33
    Y[2]      ULC[4]    13
    Y[2]      LLC[0]    92
    Y[2]      LLC[1]    1
    Y[2]      LLC[2]    46
    Y[2]      LLC[3]    30
    Y[2]      LLC[4]    36
    Y[3]      OBJ       45
    Y[3]      ULC[0]    34
    Y[3]      ULC[1]    1
    Y[3]      ULC[2]    31
    Y[3]      ULC[3]    3
    Y[3]      ULC[4]    12
    Y[3]      LLC[0]    81
    Y[3]      LLC[1]    8
    Y[3]      LLC[2]    40
    Y[3]      LLC[3]    26
    Y[3]      LLC[4]    74
    Y[4]      OBJ       -43
    Y[4]      ULC[0]    73
    Y[4]      ULC[1]    64
    Y[4]      ULC[2]    56
    Y[4]      ULC[3]    15
    Y[4]      ULC[4]    41
    Y[4]      LLC[0]    67
    Y[4]      LLC[1]    67
    Y[4]      LLC[2]    47
    Y[4]      LLC[3]    37
    Y[4]      LLC[4]    100
    Y[5]      OBJ       34
    Y[5]      ULC[0]    15
    Y[5]      ULC[1]    9
    Y[5]      ULC[2]    49
    Y[5]      ULC[3]    57
    Y[5]      ULC[4]    17
    Y[5]      LLC[0]    83
    Y[5]      LLC[1]    43
    Y[5]      LLC[2]    84
    Y[5]      LLC[3]    100
    Y[5]      LLC[4]    29
    Y[6]      OBJ       -17
    Y[6]      ULC[0]    68
    Y[6]      ULC[1]    74
    Y[6]      ULC[2]    44
    Y[6]      ULC[3]    78
    Y[6]      ULC[4]    57
    Y[6]      LLC[0]    19
    Y[6]      LLC[1]    6
    Y[6]      LLC[2]    92
    Y[6]      LLC[3]    70
    Y[6]      LLC[4]    3
    Y[7]      OBJ       11
    Y[7]      ULC[0]    67
    Y[7]      ULC[1]    98
    Y[7]      ULC[2]    86
    Y[7]      ULC[3]    73
    Y[7]      ULC[4]    46
    Y[7]      LLC[0]    39
    Y[7]      LLC[1]    79
    Y[7]      LLC[2]    21
    Y[7]      LLC[3]    28
    Y[7]      LLC[4]    2
    Y[8]      OBJ       -45
    Y[8]      ULC[0]    80
    Y[8]      ULC[1]    76
    Y[8]      ULC[2]    1
    Y[8]      ULC[3]    79
    Y[8]      ULC[4]    20
    Y[8]      LLC[0]    22
    Y[8]      LLC[1]    60
    Y[8]      LLC[2]    77
    Y[8]      LLC[3]    66
    Y[8]      LLC[4]    47
    Y[9]      OBJ       9
    Y[9]      ULC[0]    81
    Y[9]      ULC[1]    62
    Y[9]      ULC[2]    67
    Y[9]      ULC[3]    85
    Y[9]      ULC[4]    33
    Y[9]      LLC[0]    29
    Y[9]      LLC[1]    28
    Y[9]      LLC[2]    96
    Y[9]      LLC[3]    37
    Y[9]      LLC[4]    26
    MARKER    'MARKER'                 'INTEND'
RHS
    RHS1      ULC[0]    923
    RHS1      ULC[1]    813
    RHS1      ULC[2]    669
    RHS1      ULC[3]    709
    RHS1      ULC[4]    696
    RHS1      LLC[0]    560
    RHS1      LLC[1]    325
    RHS1      LLC[2]    767
    RHS1      LLC[3]    638
    RHS1      LLC[4]    470
BOUNDS
 BV BND1      X[0]    
 BV BND1      X[1]    
 BV BND1      X[2]    
 BV BND1      X[3]    
 BV BND1      X[4]    
 BV BND1      X[5]    
 BV BND1      X[6]    
 BV BND1      X[7]    
 BV BND1      X[8]    
 BV BND1      X[9]    
 BV BND1      Y[0]    
 BV BND1      Y[1]    
 BV BND1      Y[2]    
 BV BND1      Y[3]    
 BV BND1      Y[4]    
 BV BND1      Y[5]    
 BV BND1      Y[6]    
 BV BND1      Y[7]    
 BV BND1      Y[8]    
 BV BND1      Y[9]    
ENDATA
